NAME:  free_trial
TYPE: ATSP
COMMENT: 4 city problem
DIMENSION:  4
EDGE_WEIGHT_TYPE: EXPLICIT
EDGE_WEIGHT_FORMAT: FULL_MATRIX 
EDGE_WEIGHT_SECTION
99  3   8   5      
11  99  5   6
12  15  99  7
5   8   13  99
EOF
